# Any line starting with the # character is a comment line
#! Sample HF/cc-pVDZ H2O computation

memory 250 mb

molecule h2o {
   0 1 
   H 0.00 0.00 0.80
   H 0.00 0.00 -0.80 
}

set basis sto-3g
energy('fci')

